
  32   50
  11    9   16   18   20   17   11    9    9    9   12   12   15    8   22   10   14   13   14    6   23   15    9   20   12   11    7   20   16    3    7   14    0    0    0    0    0    0    0    0    0    0    0    0    0    0    0    0    0    0

   0   0   0   0   0   0   0   0   0   0   0   0   0   0   0   0   0   0   0   0   0   0   0   0   0   0   0   0   0   0   0   0   0   0   0   0   0   0   0   0   0   0   0   0   0   0   0   0   0   0   0  10 2 3 4 5 6 7 8 11 14 20 
   5   0   0   0   0   0   0   0   0   0   0   0   0   0   0   0   0   0   0   0   0   9   0   0   2   0   0   0   9   0   0   2   0   0   0   0   0   0   0   0   0   0   0   0   0   0   0   0   0   0   0   8 30 28 26 25 17 16 15 10 
   9   0   0   0   0   0   0   0   0   0   0   0   0   0   0   0  10   0   0   0   6   2   0   6   3   0   0   0   9   0   0   0   0   0   0   0   0   0   0   0   0   0   0   0   0   0   0   0   0   0   0   7 29 28 27 24 23 17 9 
   1   0   0   0   0   8   0   0   0   0   0   0   0   0   0   0   0   0   0   0   0   0   0   0   0   0   0   0   0   9   0   0   0   0   0   0   0   0   0   0   0   0   0   0   0   0   0   0   0   0   0   5 31 28 15 13 10 
   1   0   0   0   0   0   0   0   9   0   9   0   0   0   8   0   0   0   5   0   0  10   0   0   2   0   0   0   8   0   0   0   0   0   0   0   0   0   0   0   0   0   0   0   0   0   0   0   0   0   0   6 30 28 27 26 25 10 
   6   0   1   7   0   0   0   2   0   0   1   0   8   0   0   0   0   0   0   0   0   0   0   0   0   0   0   0   0   0   0   0   0   0   0   0   0   0   0   0   0   0   0   0   0   0   0   0   0   0   0   7 29 28 27 25 24 23 15 
   8   0   0   2   0   0   0   0   0   0   0   0   0  10   0  10   0   0   0   0   0   0   0   0   0   0   7   2   0   0   0   0   0   0   0   0   0   0   0   0   0   0   0   0   0   0   0   0   0   0   0   4 27 23 16 15 
   3   0   0   0   0   0   0   0   0   0   0   0   7   7   0   0   0   0   0   0   0   1   0   0   0   0   0   0   0   0   0   0   0   0   0   0   0   0   0   0   0   0   0   0   0   0   0   0   0   0   0   5 27 25 23 19 18 
   3   0   0   0   0   0   0   1   0   4   0   0   0   0   1   0   0   0   0   0   0   0   0   0   0   0   0   0   0   9   0   0   0   0   0   0   0   0   0   0   0   0   0   0   0   0   0   0   0   0   0   3 26 16 15 
  10   0   0   5   7   0   0   8   0   0   0   0   0   0   0   0   0   0   0   0   0   2   0   0   0   0   0   0   0   0   0   0   0   0   0   0   0   0   0   0   0   0   0   0   0   0   0   0   0   0   0   1 12 
   8   0   0   0   3   0   0   0   0   0   0   0   0   0   0  10   0   6   1   0   0   0  10   5   0   6   0   0   0   0   0   0   0   0   0   0   0   0   0   0   0   0   0   0   0   0   0   0   0   0   0   1 12 
   4   9   0   0   0   0   4   0   0   0   0   0   0   0   0   0   0   0   0   0   0   0   0   0   0   0   4   0   0   0   0   0   0   0   0   0   0   0   0   0   0   0   0   0   0   0   0   0   0   0   0   4 24 23 19 18 
   1   0   2   1   0   0   0   0   0   0   0   9   0   0   0   0   0   0   0   8   0   0   0   0   0   9   0   0   3   0   0   0   0   0   0   0   0   0   0   0   0   0   0   0   0   0   0   0   0   0   0   4 26 25 22 21 
   6   0   0   0   0   0   0   0   0   0   0   0   0   0   0   0   0   0   7   0   0   0   0   0   0   0   0   0   0   0   0   0   0   0   0   0   0   0   0   0   0   0   0   0   0   0   0   0   0   0   0   4 29 25 22 21 
   7   0   0   0   0   8   0   0   0   0   4   0   0   3   0   0   0   0   0   0   0   0   0   0   9   0   0   0   0   2   3   0   0   0   0   0   0   0   0   0   0   0   0   0   0   0   0   0   0   0   0   2 19 18 
   2   0   0   0   0   0   0   0   0   0   0   6   0   0   0   0   2   0   0   8   0   0   0   0  10   0   0   0   0   0   0   0   0   0   0   0   0   0   0   0   0   0   0   0   0   0   0   0   0   0   0   2 19 18 
  10   0   1   0   0   0   6   0   0   0   0   0   0   7   0   0   0   0   0   0   0   0   0   0   0   0   0   0   1   9   0   0   8   0   0   0   0   0   0   0   0   0   0   0   0   0   0   0   0   0   0   1 18 
   4   0   0   0   0   0   0   0   0   0   0   0   0   0   0   7   0   0   0   0   6   0   0   0   0   0   0   0   0   5   0   0   0   0   0   0   0   0   0   0   0   0   0   0   0   0   0   0   0   0   0   1 21 
   1   0   0   0   0   0   0   0   0   0   0   6   0   0   0   0   0   0   0   0   0   0   0   0   0   0   0   0   0   0   0   0   0   0   0   0   0   0   0   0   0   0   0   0   0   0   0   0   0   0   0   1 22 
   5   0   0  10   0   0   6   0   0   0   0   0   0   0   0   9   0   0   0   0   0   9   8   0   5   0   7   0   0   0   0   0   9   0   0   0   0   0   0   0   0   0   0   0   0   0   0   0   0   0   0   1 26 
   1   0   0   0   0   0   0   3   0   0   0   0   0  10   0   0   0   2   5   0   2   0   0   0   0   0   0   0   0   0   0   0   8   0   0   0   0   0   0   0   0   0   0   0   0   0   0   0   0   0   0   1 32
  10   0   0   0   0   0   0   0   0   0   0   0   0   0   0   0   0   9  10   0   0   0   0   0   0   0   0   0   0   7   0   0   0   0   0   0   0   0   0   0   0   0   0   0   0   0   0   0   0   0   0   1 32
   8   0   0   0   0   0   2   3   0   9   0   0   0   1   0   0   0   3   0   0   0   0   6   0   0   0   0   0   0   9   0   0   0   0   0   0   0   0   0   0   0   0   0   0   0   0   0   0   0   0   0   1 32
   5   1   0   9   0   0   0   0   0   0   0   8   0   7   0   0   0   0   0   0   0   0   0   0   0   0   0   0   8   0   0   0   0   0   0   0   0   0   0   0   0   0   0   0   0   0   0   0   0   0   0   1 32
  10   4   0   0   0   8   0   0   0   0   0   0   0   0   0   0   0   1   0   9   0   0   0   0   0   0   1   0   0   0   0   7   5   0   0   0   0   0   0   0   0   0   0   0   0   0   0   0   0   0   0   1 32
   4   0   0   0   7   0   9   0   0   0   0   0   0   0   0   9   0   0   0   0   0   0   8   0   0   0   0   0   0   0   0   0   0   0   0   0   0   0   0   0   0   0   0   0   0   0   0   0   0   0   0   1 32
   1   0   0   0   0   0   0   0   0   3   0   0   0   0   0   7   0   0   0   0   0   0   0   0   0   0   0   0   0   0   0   0   0   0   0   0   0   0   0   0   0   0   0   0   0   0   0   0   0   0   0   1 32
   4   0   5   0   0   1   7   0   0   0   0   0   0   0   0   0   0   0   5   0   0   0   0   0   7   6   0   7   0   0   0   0   4   0   0   0   0   0   0   0   0   0   0   0   0   0   0   0   0   0   0   1 32
   9   0   0   0   9   9   0   0   0   0   0   0   0   0   8   0   0   8   0   0   2   0   0   0   0   0   0   0   0   0   0   0   0   0   0   0   0   0   0   0   0   0   0   0   0   0   0   0   0   0   0   1 32
   4   0   9   0   0   0   0   4   0   0   0   0   0   0   0   0   0  10   0   0   0   8   0   0   0   7   0   0   0   0   0   0   0   0   0   0   0   0   0   0   0   0   0   0   0   0   0   0   0   0   0   1 32
   1   0   0   0   8   0   0   0   9   0   0   2   0   0   0   0   0   0   0   0   0   0   0   0   0   0   0   0   0   0   0   0   0   0   0   0   0   0   0   0   0   0   0   0   0   0   0   0   0   0   0   1 32
   0   0   0   0   0   0   0   0   0   0   0   0   0   0   0   0   0   0   0   0   0   0   0   0   0   0   0   0   0   0   0   0   0   0   0   0   0   0   0   0   0   0   0   0   0   0   0   0   0   0   0   0 
